30
0	0
1	0
2	156
3	583
4	1018
5	838
6	838
7	156
8	557
9	843
10	947
11	842
12	1928
13	444
14	945
15	1527
16	322
17	1298
18	583
19	1298
20	1749
21	1991
22	1301
23	1021
24	1998
25	1986
26	1991
27	1527
28	1995
29	2000
